&CONTROL
  calculation  = 'scf' ,
  restart_mode = 'from_scratch',
  prefix  = 'POSCAR' ,
  outdir  = './work/' ,
  pseudo_dir = './' ,
  tstress = .true.
  tprnfor = .true.
/
&SYSTEM
  ibrav = 0
  celldm(1) = 7.3075326033
  nat = 2
  ntyp = 1
  ecutwfc  =  44.0 ,
  ecutrho  = 175.0 ,
  occupations = 'smearing' ,
  degauss  = 0.02 ,
  smearing = 'mp',
  nosym = .true.
/
&ELECTRONS
  conv_thr = 1.0e-06 ,
  mixing_beta = 0.7 ,
/
ATOMIC_SPECIES
  Si   28.08500  Si.pbe-n-kjpaw_psl.1.0.0.UPF

CELL_PARAMETERS {alat}
  3.866980000000000   0.000000000000000   0.000000000000000
  1.933490000000000   3.348902915926350   0.000000000000000
  1.933490000000000   1.116300971975450   3.157375948515898

ATOMIC_POSITIONS {crystal}
  Si   0.750000000000000   0.750000000000000   0.750000000000000 
  Si   0.500000000000000   0.500000000000000   0.500000000000000 
K_POINTS automatic
 4 4 4  1 1 1

