&CONTROL
  calculation  = 'scf' ,
  restart_mode = 'from_scratch',
  prefix  = 'POSCAR' ,
  outdir  = './work/' ,
  pseudo_dir = './' ,
  tstress = .true.
  tprnfor = .true.
/
&SYSTEM
  ibrav = 0
  celldm(1) = 1.0
  nat = 2
  ntyp = 1
  ecutwfc  =  44.0 ,
  ecutrho  = 175.0 ,
  occupations = 'smearing' ,
  degauss  = 0.02 ,
  smearing = 'mp',
  nosym = .true.
/
&ELECTRONS
  conv_thr = 1.0e-06 ,
  mixing_beta = 0.7 ,
/
ATOMIC_SPECIES
  Si   28.08500  Si.pbe-n-kjpaw_psl.1.0.0.UPF
ATOMIC_POSITIONS {crystal}
  Si   0.750000000000000   0.750000000000000   0.750000000000000 
  Si   0.500000000000000   0.500000000000000   0.500000000000000 
K_POINTS automatic
 4 4 4  1 1 1
CELL_PARAMETERS {alat}
7.307532603	0	0
3.653766302	6.328508874	0
3.653766302	2.109502958	5.966575386
